16 32
1 2 3
1 5 1
2 3 3
2 6 2
3 4 2
3 7 5
4 8 2
5 6 2
5 9 5
6 7 4
6 10 3
7 8 3
7 11 2
8 12 3
9 10 2
9 13 4
10 11 5
10 14 1
11 12 1
11 15 2
12 16 1
13 14 2
14 15 5
15 16 1
1 13 3
2 14 3
3 15 2
4 16 4
1 4 2
5 8 2
9 12 4
13 16 3
